50
100
100
99
98
97
94
93
91
89
89
89
85
85
84
83
81
81
78
73
73
73
73
70
69
68
64
64
63
59
54
49
48
45
45
43
42
41
39
37
37
36
32
30
26
26
25
24
24
23
21
21
